60	100	100	100
5	5	8
1	9	7
4	2	2
8	1	8
7	5	2
3	7	4
5	2	4
3	7	6
7	4	9
6	7	9
7	6	2
2	4	2
8	3	3
1	5	1
1	3	6
3	8	4
9	4	1
6	4	7
9	9	1
7	2	1
3	5	4
6	6	2
8	8	8
6	4	5
9	1	7
1	2	3
5	5	7
3	7	6
5	5	2
5	1	8
1	7	7
4	7	9
4	5	1
1	5	7
8	6	2
4	3	4
9	4	4
9	1	2
6	5	9
1	3	7
2	3	8
9	8	8
5	6	6
6	9	2
2	6	1
9	3	1
4	3	8
1	9	8
1	9	8
4	7	9
5	6	8
3	8	1
3	3	9
1	5	1
8	5	6
6	7	5
1	9	7
5	5	4
6	8	8
3	2	6
